NAME: test100
TYPE: TSP
DIMENSION: 20
EDGE_WEIGHT_TYPE: EUC_2D
NODE_COORD_SECTION
1 49.115606086915655 13.311276453665888
2 94.59579353023658 94.28033298134856
3 55.58874066617071 79.64376059921497
4 86.01788258059993 74.55216338427407
5 59.740242965026724 44.59752134407948
6 40.67560825051775 7.411063921215377
7 1.7378277302468659 26.016050059541783
8 92.95441166387234 65.99976466760955
9 35.98580262453777 2.4118976046072493
10 90.3204786118893 77.13629523199802
11 82.77134027946332 97.3142395653529
12 7.249386683814063 12.297500841292596
13 13.045060569269683 64.50774704749547
14 28.31992030719889 84.91329429549185
15 45.89228787808318 70.41497558217901
16 64.32348384861506 84.57468481523308
17 88.89073502012809 93.2584309640539
18 42.89529065646413 80.83650291785467
19 74.34210194713967 45.07555509371413
20 91.36244382150596 58.37074398304084
EOF
